%%% static parameters %%%
timespan = 1;
Fact = [2];
Distr1 = [5];
Distr2 = [10];
Clients_N = [100];
Demand_W = [15];
Lt0 = [4];
Lt1 = [4];
SS_ = [0.85];
DS_D = [8];
K = [200];
MA = [500];
%%% dynamic parameters %%%
lost_ratio_sales_ret_th = 0.9633772341339704;
lost_ratio_sales_ret_w = 70;
lost_ratio_sales_dis_th = 0.16117940050667;
lost_ratio_sales_dis_w = 27;
lost_ratio_sales_fac_th = 0.9338253031039423;
lost_ratio_sales_fac_w = 89;
stock_customer_MA_mean_relative_th = 0.35864134355638944;
stock_customer_MA_mean_relative_w = 100;
stock_distributor_MA_mean_relative_th = 0.2824847821201706;
stock_distributor_MA_mean_relative_w = 13;
stock_retailer_MA_mean_relative_th = 0.4196599388739817;
stock_retailer_MA_mean_relative_w = 37;
stock_factory_MA_mean_relative_th = 0.9374281929326688;
stock_factory_MA_mean_relative_w = 27;
